/* Objective function */
max: 15x1 + 1x2 -5x3 -4x4
     -1x5 +14x6 + 5x7 - 4x8 - 4x9 + 1x10
     - 3x11 - 3x12 + 13x13 - 3x14 - 3x15 - 3x16 + 17x17 - 3x18
     - 2x19 - 2x20 - 2x21 - 2x22 + 10x23 + 12x24 + 13x25 + 38x26 - 2x27 - 2x28
     - 1x29 - 1x30 - 1x31 - 1x32 - 1x33 - 1x34 + 9x35 + 7x36 - 1x37 - 1x38 - 1x39 - 1x40;

/* Variable bounds */
r11: x1 <= x5;
r12: x1 <= x6;
r13: x1 <= x7;

r21: x2 <= x6;
r22: x2 <= x7;
r23: x2 <= x8;

r31: x3 <= x7;
r32: x3 <= x8;
r33: x3 <= x9;

r41: x4 <= x8;
r42: x4 <= x9;
r43: x4 <= x10;

r51: x5 <= x11;
r52: x5 <= x12;
r53: x5 <= x13;

r61: x6 <= x12;
r62: x6 <= x13;
r63: x6 <= x14;

r71: x7 <= x13;
r72: x7 <= x14;
r73: x7 <= x15;

r81: x8 <= x14;
r82: x8 <= x15;
r83: x8 <= x16;

r91: x9 <= x15;
r92: x9 <= x16;
r93: x9 <= x17;

r101: x10 <= x16;
r102: x10 <= x17;
r103: x10 <= x18;

r111: x11 <= x19;
r112: x11 <= x20;
r113: x11 <= x21;

r121: x12 <= x20;
r122: x12 <= x21;
r123: x12 <= x22;

r131: x13 <= x21;
r132: x13 <= x22;
r133: x13 <= x23;

r141: x14 <= x22;
r142: x14 <= x23;
r143: x14 <= x24;

r151: x15 <= x23;
r152: x15 <= x24;
r153: x15 <= x25;

r161: x16 <= x24;
r162: x16 <= x25;
r163: x16 <= x26;

r171: x17 <= x25;
r172: x17 <= x26;
r173: x17 <= x27;

r181: x18 <= x26;
r182: x18 <= x27;
r183: x18 <= x28;

r191: x19 <= x29;
r192: x19 <= x30;
r193: x19 <= x31;

r201: x20 <= x30;
r202: x20 <= x31;
r203: x20 <= x32;

r211: x21 <= x31;
r212: x21 <= x32;
r213: x21 <= x33;

r221: x22 <= x32;
r222: x22 <= x33;
r223: x22 <= x34;

r231: x23 <= x33;
r232: x23 <= x34;
r233: x23 <= x35;

r241: x24 <= x34;
r242: x24 <= x35;
r243: x24 <= x36;

r251: x25 <= x35;
r252: x25 <= x36;
r253: x25 <= x37;

r261: x26 <= x36;
r262: x26 <= x37;
r263: x26 <= x38;

r271: x27 <= x37;
r272: x27 <= x38;
r273: x27 <= x39;

r291: x28 <= x38;
r292: x28 <= x39;
r293: x28 <= x40;

Bin
   x1, x2, x3, x4,
   x5, x6, x7, x8, x9, x10,
   x11, x12, x13, x14, x15, x16, x17, x18,
   x19, x20, x21, x22, x23, x24, x25, x26, x27, x28,
   x29, x30, x31, x32, x33, x34, x35, x36, x37, x38, x39, x40;